data/CVRPLIB/Vrp-Set-XML100/instances/XML100_2214_07.vrp
NAME : XML100_2214_07
COMMENT : Generated by Queiroga, Sadykov, Uchoa, and Vidal (2021)
TYPE : CVRP
DIMENSION : 101
EDGE_WEIGHT_TYPE : EUC_2D
CAPACITY : 12
NODE_COORD_SECTION
1    500  500 
2    144  902 
3    935  501 
4    754  473 
5    796  592 
6    482  469 
7    993  466 
8    678  497 
9    288  757 
10   777  244 
11   26   954 
12   955  399 
13   657  448 
14   438  538 
15   717  444 
16   799  503 
17   522  124 
18   754  321 
19   354  959 
20   722  587 
21   811  341 
22   649  555 
23   794  464 
24   146  990 
25   487  500 
26   606  463 
27   402  932 
28   20   774 
29   889  436 
30   661  460 
31   289  971 
32   692  593 
33   187  861 
34   127  839 
35   609  584 
36   740  425 
37   597  636 
38   611  609 
39   485  595 
40   827  376 
41   640  549 
42   582  470 
43   780  643 
44   710  441 
45   242  1000
46   445  922 
47   490  841 
48   906  447 
49   858  385 
50   31   722 
51   837  194 
52   255  942 
53   835  446 
54   154  740 
55   389  982 
56   151  904 
57   799  552 
58   606  338 
59   140  905 
60   605  429 
61   333  864 
62   332  949 
63   626  576 
64   398  857 
65   532  423 
66   609  393 
67   613  577 
68   612  532 
69   569  513 
70   454  931 
71   638  580 
72   200  963 
73   661  449 
74   570  630 
75   364  901 
76   565  613 
77   644  515 
78   210  799 
79   598  575 
80   655  376 
81   702  436 
82   43   854 
83   707  597 
84   366  915 
85   836  434 
86   614  426 
87   65   943 
88   955  240 
89   655  585 
90   918  408 
91   349  862 
92   702  424 
93   680  404 
94   341  964 
95   164  897 
96   578  455 
97   708  426 
98   248  953 
99   859  455 
100  164  952 
101  71   610 
DEMAND_SECTION
1    0   
2    1   
3    1   
4    1   
5    1   
6    1   
7    1   
8    1   
9    1   
10   1   
11   1   
12   1   
13   1   
14   1   
15   1   
16   1   
17   1   
18   1   
19   1   
20   1   
21   1   
22   1   
23   1   
24   1   
25   1   
26   1   
27   1   
28   1   
29   1   
30   1   
31   1   
32   1   
33   1   
34   1   
35   1   
36   1   
37   1   
38   1   
39   1   
40   1   
41   1   
42   1   
43   1   
44   1   
45   1   
46   1   
47   1   
48   1   
49   1   
50   1   
51   1   
52   1   
53   1   
54   1   
55   1   
56   1   
57   1   
58   1   
59   1   
60   1   
61   1   
62   1   
63   1   
64   1   
65   1   
66   1   
67   1   
68   1   
69   1   
70   1   
71   1   
72   1   
73   1   
74   1   
75   1   
76   1   
77   1   
78   1   
79   1   
80   1   
81   1   
82   1   
83   1   
84   1   
85   1   
86   1   
87   1   
88   1   
89   1   
90   1   
91   1   
92   1   
93   1   
94   1   
95   1   
96   1   
97   1   
98   1   
99   1   
100  1   
101  1   
DEPOT_SECTION
1
-1
EOF
