data/CVRPLIB/Vrp-Set-XML100/solutions/XML100_2214_07.sol
Route #1: 76 7 3 15 56 4 42 19 82 31 88 78
Route #2: 90 60 30 51 97 44 71 23 99 55 33 53
Route #3: 75 73 36 37 34 66 62 70 21 40 67 68
Route #4: 100 49 27 81 10 86 58 1 94 32 77 8
Route #5: 38 63 74 83 61 93 18 54 26 45 69 46
Route #6: 41 25 12 72 80 43 96 91 92 85 59 95
Route #7: 64 5 13 24
Route #8: 65 79 17 20 39 48 84 52 22 35 14 29
Route #9: 98 28 47 2 6 11 89 87 50 9 16 57
Cost 8675
